






































































47 19 
38 75 
45 34 
35 15 
27 37 
33 
52 3 
65 23 
61 36 
50 70 
63 17 
4 74 
13 58 
39 
32 
30 21 
16 68 
72 
54 43 
64 24 
11 57 


46 26 
73 9 
28 49 
25 41 
53 7 
8 44 
5 71 
60 42 
40 56 
29 2 
76 51 
14 
31 59 
12 18 
20 66 
67 10 
22 6 
62 
1 
0 55 
48 69 
